20170620 0 10000 0 0
20150611 150 0 0 0
20120828 100 0 0 0
20110630 100 6000 0 0
20100303 0 6000 0 0
20080722 100 0 0 0
20070516 100 0 0 0
20060907 0 2285 0 0
20060712 100 0 0 0
20050526 100 0 0 0
20040601 100 3000 0 0
20031023 100 0 0 0
20020520 50 0 0 0
20010620 100 0 0 0
20000906 0 5000 0 0
20000419 0 4000 0 0
